p cnf 1085 1287
c ind 729 730 731 744 751 777 838 839 852 859 0
c ind 863 865 868 884 886 889 901 902 921 923 0
c ind 927 938 939 943 944 945 949 951 722 837 0
c ind 752 764 723 724 836 727 728 835 1038 1039 0
c ind 1037 1036 1070 1052 1061 1075 1056 1066 1083 1069 0
c ind 1051 1060 1074 1055 1065 1082 1034 1035 1068 1050 0
c ind 1059 1073 1054 1064 1081 1033 1067 1049 1058 1072 0
c ind 1053 1063 1080 1028 1044 1048 1078 1032 1031 1030 0
c ind 1029 1026 1027 1046 1076 1047 1077 1025 1020 1024 0
c ind 1023 1022 1021 1057 1071 1062 1079 725 726 1018 0
c ind 1019 1011 1012 1017 1045 1016 1015 1014 1013 1009 0
c ind 1010 1008 1041 1007 1005 1006 1042 1004 999 1003 0
c ind 1002 1001 1000 997 998 996 991 995 994 993 0
c ind 992 989 990 1043 982 983 988 987 986 985 0
c ind 984 1040 980 981 979 978 976 977 975 970 0
c ind 974 973 972 971 968 969 967 962 966 965 0
c ind 964 963 960 961 953 954 959 958 957 956 0
c ind 955 933 934 932 931 930 952 942 940 941 0
c ind 929 928 950 937 926 948 946 947 935 936 0
c ind 925 924 917 922 920 918 919 916 909 908 0
c ind 915 914 913 912 911 910 907 906 905 904 0
c ind 903 721 896 895 893 894 892 891 897 898 0
c ind 890 888 899 887 900 885 883 881 882 880 0
c ind 879 878 877 876 875 874 872 873 871 870 0
c ind 869 867 866 842 864 862 860 861 734 858 0
c ind 853 857 854 855 849 856 851 847 848 850 0
c ind 846 841 845 843 844 840 834 827 819 833 0
c ind 832 831 830 813 812 811 829 810 828 809 0
c ind 808 807 826 825 824 823 822 821 820 818 0
c ind 817 816 815 814 806 799 791 805 804 803 0
c ind 802 785 784 783 801 782 800 781 780 779 0
c ind 798 797 796 795 794 793 792 790 789 788 0
c ind 787 786 778 776 774 775 765 766 773 772 0
c ind 771 770 769 767 768 761 760 762 763 759 0
c ind 758 757 756 754 755 753 750 749 745 746 0
c ind 747 748 741 743 740 739 742 733 738 732 0
c ind 737 735 736 1 0
c ret 605 606 607 608 609 610 611 612 613 614 0
c ret 615 616 617 618 619 620 621 622 623 624 0
c ret 625 626 627 628 629 630 631 632 633 634 0
c ret 635 636 637 638 639 640 641 642 643 644 0
c ret 645 646 647 648 649 650 651 652 653 654 0
c ret 655 656 657 658 659 660 661 662 663 664 0
c ret 665 666 667 668 669 670 671 672 673 674 0
c ret 675 676 677 678 679 680 681 682 683 684 0
c ret 685 300 686 306 307 687 308 688 309 689 0
c ret 310 311 312 313 314 315 316 317 318 319 0
c ret 320 321 322 323 324 690 691 325 326 692 0
c ret 693 327 328 329 330 331 694 332 333 334 0
c ret 335 336 337 695 338 339 696 340 341 342 0
c ret 697 301 698 343 344 345 346 347 348 349 0
c ret 699 350 351 352 700 701 353 354 355 356 0
c ret 702 703 357 358 359 360 361 362 363 364 0
c ret 365 366 367 368 369 370 704 371 705 372 0
c ret 373 374 706 375 707 376 377 378 379 380 0
c ret 381 382 708 383 302 384 385 386 709 387 0
c ret 710 388 389 390 711 712 391 392 393 394 0
c ret 395 396 397 398 399 713 714 400 401 402 0
c ret 403 404 715 405 406 407 408 409 410 411 0
c ret 412 413 716 414 415 416 717 417 718 418 0
c ret 419 719 420 421 720 422 423 303 424 425 0
c ret 426 427 428 429 430 431 432 433 434 435 0
c ret 436 437 438 439 440 441 442 443 444 445 0
c ret 446 447 448 449 450 451 452 453 454 455 0
c ret 456 457 458 459 460 461 462 463 464 465 0
c ret 466 467 468 469 470 471 472 473 474 475 0
c ret 476 477 478 479 480 481 482 483 484 485 0
c ret 486 487 488 489 490 491 492 493 494 304 0
c ret 495 496 497 498 499 500 501 502 503 504 0
c ret 505 506 507 508 509 510 511 512 513 514 0
c ret 515 516 517 518 519 520 521 522 523 524 0
c ret 525 526 527 528 529 530 531 532 533 305 0
c ret 534 535 536 537 538 539 540 541 542 543 0
c ret 544 545 546 547 548 549 550 551 552 553 0
c ret 554 555 556 557 558 559 560 561 562 563 0
c ret 564 565 566 567 568 569 570 571 572 573 0
c ret 574 575 576 577 578 579 580 581 582 583 0
c ret 584 585 586 587 588 589 590 591 592 593 0
c ret 594 595 596 597 598 599 600 601 602 603 0
c ret 604 0
2 4 5 -296 0
2 3 5 -296 0
-2 296 0
-2 -5 0
-2 -3 -4 0
3 532 0
3 -533 539 0
3 533 540 0
-3 -532 533 -540 0
-3 -532 -533 -539 0
4 532 0
4 -533 -539 0
4 533 -540 0
-4 -532 533 540 0
-4 -532 -533 539 0
5 6 52 101 -122 0
5 -6 -52 101 -122 0
-5 -101 0
-5 6 -52 0
-5 122 0
-5 -6 52 0
6 -7 -9 0
6 -7 48 0
-6 7 0
-6 9 -48 0
4 7 -8 0
3 7 -8 0
-7 8 0
-3 -4 -7 0
8 -561 -590 -619 -648 0
-8 648 0
-8 561 0
-8 619 0
-8 590 0
9 -10 -47 -720 0
9 10 -11 -47 0
-9 47 0
-9 -10 720 0
-9 10 11 0
10 527 -529 0
-10 -527 0
-10 529 0
11 -12 -719 0
11 12 -13 0
-11 -12 719 0
-11 12 13 0
12 499 -501 0
-12 -499 0
-12 501 0
13 14 39 46 0
13 14 39 -42 0
-13 -14 0
-13 -39 0
-13 42 -46 0
14 -37 300 -475 0
14 15 300 475 0
-14 -300 0
-14 37 -475 0
-14 -15 475 0
15 -16 -716 0
-15 716 0
-15 16 0
16 17 -21 0
-16 -17 0
-16 21 0
17 -18 -332 0
17 -20 -332 0
17 -19 -332 0
-17 332 0
-17 18 19 20 0
18 -333 334 335 0
-18 333 0
-18 -335 0
-18 -334 0
19 338 341 342 0
-19 -338 0
-19 -342 0
-19 -341 0
20 -338 339 340 0
-20 338 0
-20 -340 0
-20 -339 0
21 22 -29 0
21 22 32 -365 0
-21 -22 0
-21 29 -32 0
-21 29 365 0
22 -23 26 0
22 26 386 0
-22 -26 0
-22 23 -386 0
23 -25 389 392 0
23 -24 -25 389 0
-23 -389 0
-23 25 0
-23 24 -392 0
24 390 -391 0
-24 -390 0
-24 391 0
25 387 388 0
-25 -387 0
-25 -388 0
24 -25 26 27 -28 0
25 -26 0
-26 -27 0
-24 -26 0
-26 28 0
27 398 399 0
27 398 406 407 0
-27 -398 0
-27 -399 -406 0
-27 -399 -407 0
28 -386 389 392 -393 0
-28 393 0
-28 -392 0
-28 386 0
-28 -389 0
29 30 -358 0
29 31 -358 -364 0
-29 358 0
-29 -30 364 0
-29 -30 -31 0
30 359 360 361 0
-30 -359 0
-30 -361 0
-30 -360 0
31 362 -363 0
-31 -362 0
-31 363 0
32 33 35 0
-32 -33 0
-32 -35 0
33 -34 364 -370 0
-33 34 0
-33 370 0
-33 -364 0
-30 31 34 -358 -365 0
30 -34 0
-31 -34 0
-34 358 0
-34 365 0
-34 35 -36 -378 0
-34 35 -36 -379 0
-35 36 0
34 -35 0
-35 378 379 0
36 364 370 -371 0
-36 371 0
-36 -370 0
-36 -364 0
37 -38 717 0
15 37 38 0
-37 -38 -717 0
-15 -37 38 0
38 441 -443 0
-38 -441 0
-38 443 0
39 -40 -41 -485 0
39 -40 -41 -486 0
-39 41 0
-39 40 0
-39 485 486 0
40 488 489 490 491 0
-40 -491 0
-40 -490 0
-40 -488 0
-40 -489 0
41 -482 -483 -484 487 0
-41 484 0
-41 -487 0
-41 482 0
-41 483 0
37 42 -43 0
-37 -42 0
-42 43 0
43 44 45 0
-43 -44 0
-43 -45 0
44 454 455 456 0
-44 -454 0
-44 -456 0
-44 -455 0
45 462 -464 0
-45 -462 0
-45 464 0
45 46 -300 0
46 -300 718 0
-46 300 0
-45 -46 -718 0
47 -496 503 0
-47 496 0
-47 -503 0
48 49 -496 0
11 13 48 0
13 48 49 0
11 48 -496 0
-13 -48 496 0
-11 -48 -49 0
49 51 -496 -503 0
49 50 -496 -503 0
-49 496 0
-49 503 0
-49 -50 -51 0
50 -504 505 0
-50 504 0
-50 -505 0
51 507 -508 -509 510 0
-51 -507 0
-51 -510 0
-51 509 0
-51 508 0
52 -53 -60 0
52 -53 97 0
-52 53 0
-52 60 -97 0
53 -54 56 0
53 -54 55 59 0
-53 54 0
-53 -55 -56 0
-53 -56 -59 0
54 -982 -1011 0
-54 982 0
-54 1011 0
55 953 0
55 -954 -960 0
55 954 -961 0
-55 -953 954 961 0
-55 -953 -954 960 0
56 -57 -58 0
-55 56 -58 0
-56 58 0
55 -56 57 0
-55 57 0
57 962 -969 0
57 -962 -968 0
55 -57 -962 968 0
55 -57 962 969 0
58 953 0
58 -954 960 0
58 954 961 0
-58 -953 954 -961 0
-58 -953 -954 -960 0
-55 59 0
59 -962 968 0
59 962 969 0
55 -59 -962 -968 0
55 -59 962 -969 0
60 -61 -96 -1083 0
60 61 -62 -96 0
-60 96 0
-60 -61 1083 0
-60 61 62 0
61 948 -950 0
-61 -948 0
-61 950 0
62 -63 -1082 0
62 63 -64 0
-62 -63 1082 0
-62 63 64 0
63 920 -922 0
-63 -920 0
-63 922 0
64 65 88 95 0
64 65 88 -91 0
-64 -65 0
-64 -88 0
-64 91 -95 0
65 -86 721 -896 0
65 66 721 896 0
-65 -721 0
-65 86 -896 0
-65 -66 896 0
66 -67 -1079 0
-66 1079 0
-66 67 0
67 -68 82 0
-67 68 0
-67 -82 0
68 -75 76 0
68 69 76 -786 0
-68 -76 0
-68 -69 75 0
-68 75 786 0
69 70 0
69 73 -785 0
69 73 791 0
-69 -70 -73 0
-69 -70 785 -791 0
70 -71 72 -779 -786 0
-70 71 0
-70 -72 0
-70 779 0
-70 786 0
71 780 781 782 0
-71 -780 0
-71 -782 0
-71 -781 0
72 783 -784 0
-72 -783 0
-72 784 0
73 74 785 791 -792 0
-73 -785 0
-73 -74 0
-73 792 0
-73 -791 0
74 799 800 0
-74 -799 0
-74 -800 0
71 75 -779 0
72 75 -779 -785 0
-75 779 0
-71 -75 785 0
-71 -72 -75 0
76 78 81 0
76 78 -80 0
76 77 78 0
-76 -78 0
-76 -77 80 -81 0
77 808 809 810 0
-77 -808 0
-77 -810 0
-77 -809 0
77 78 -807 0
78 79 -807 -813 0
-78 807 0
-77 -78 813 0
-77 -78 -79 0
79 811 -812 0
-79 -811 0
-79 812 0
80 819 820 0
80 819 827 828 0
-80 -819 0
-80 -820 -827 0
-80 -820 -828 0
79 81 -807 813 -814 0
-81 814 0
-79 -81 0
-81 807 0
-81 -813 0
82 -83 -753 0
82 -85 -753 0
82 -84 -753 0
-82 753 0
-82 83 84 85 0
83 -754 755 756 0
-83 754 0
-83 -756 0
-83 -755 0
84 759 762 763 0
-84 -759 0
-84 -763 0
-84 -762 0
85 -759 760 761 0
-85 759 0
-85 -761 0
-85 -760 0
86 -87 1080 0
66 86 87 0
-86 -87 -1080 0
-66 -86 87 0
87 862 -864 0
-87 -862 0
-87 864 0
88 -89 -90 -906 0
88 -89 -90 -907 0
-88 90 0
-88 89 0
-88 906 907 0
89 909 910 911 912 0
-89 -912 0
-89 -911 0
-89 -909 0
-89 -910 0
90 -903 -904 -905 908 0
-90 905 0
-90 -908 0
-90 903 0
-90 904 0
86 91 -92 0
-86 -91 0
-91 92 0
92 93 94 0
-92 -93 0
-92 -94 0
93 875 876 877 0
-93 -875 0
-93 -877 0
-93 -876 0
94 883 -885 0
-94 -883 0
-94 885 0
94 95 -721 0
95 -721 1081 0
-95 721 0
-94 -95 -1081 0
96 -917 924 0
-96 917 0
-96 -924 0
97 98 -917 0
62 64 97 0
64 97 98 0
62 97 -917 0
-64 -97 917 0
-62 -97 -98 0
98 100 -917 -924 0
98 99 -917 -924 0
-98 917 0
-98 924 0
-98 -99 -100 0
99 928 -929 -930 931 0
-99 -928 0
-99 -931 0
-99 930 0
-99 929 0
100 -925 926 0
-100 925 0
-100 -926 0
101 -102 112 0
-101 102 0
-101 -112 0
-7 102 -103 0
-7 102 111 0
7 -102 0
-102 103 -111 0
10 -47 103 -104 0
-10 -47 103 -698 0
47 -103 0
10 -103 104 0
-10 -103 698 0
-12 104 -697 0
12 104 -105 0
-12 -104 697 0
12 -104 105 0
39 105 106 110 0
39 105 106 -109 0
-39 -105 0
-105 -106 0
-105 109 -110 0
106 -108 300 -475 0
106 107 300 475 0
-106 -300 0
-106 108 -475 0
-106 -107 475 0
-16 107 -694 0
-107 694 0
16 -107 0
-38 108 695 0
38 107 108 0
-38 -108 -695 0
38 -107 -108 0
-43 108 109 0
43 -109 0
-108 -109 0
45 110 -300 0
110 -300 696 0
-110 300 0
-45 -110 -696 0
104 111 -496 0
49 105 111 0
104 105 111 0
49 111 -496 0
-49 -104 -111 0
-105 -111 496 0
-53 112 -113 0
-53 112 121 0
53 -112 0
-112 113 -121 0
61 -96 113 -114 0
-61 -96 113 -1061 0
96 -113 0
61 -113 114 0
-61 -113 1061 0
-63 114 -1060 0
63 114 -115 0
-63 -114 1060 0
63 -114 115 0
88 115 116 120 0
88 115 116 -119 0
-88 -115 0
-115 -116 0
-115 119 -120 0
116 -118 721 -896 0
116 117 721 896 0
-116 -721 0
-116 118 -896 0
-116 -117 896 0
-67 117 -1057 0
-117 1057 0
67 -117 0
-87 118 1058 0
87 117 118 0
-87 -118 -1058 0
87 -117 -118 0
-92 118 119 0
92 -119 0
-118 -119 0
94 120 -721 0
120 -721 1059 0
-120 721 0
-94 -120 -1059 0
114 121 -917 0
98 115 121 0
114 115 121 0
98 121 -917 0
-98 -114 -121 0
-115 -121 917 0
-102 122 -123 -162 0
112 122 -123 -162 0
-122 162 0
-122 123 0
102 -112 -122 0
123 134 144 153 0
123 -124 -144 -153 0
123 -124 144 153 0
123 134 -144 -153 0
-123 144 -153 0
-123 -144 153 0
-123 124 -134 0
-7 124 -125 0
-7 124 133 0
7 -124 0
-124 125 -133 0
10 -47 125 -126 0
-10 -47 125 -689 0
47 -125 0
10 -125 126 0
-10 -125 689 0
-12 126 -688 0
12 126 -127 0
-12 -126 688 0
12 -126 127 0
39 127 128 132 0
39 127 128 -131 0
-39 -127 0
-127 -128 0
-127 131 -132 0
128 129 -300 687 0
45 128 129 -300 0
-128 300 0
-128 -129 0
-45 -128 -687 0
-43 129 130 0
43 -129 0
-129 -130 0
16 38 130 0
-38 130 686 0
38 130 305 0
-38 -130 -686 0
-16 38 -130 -305 0
-16 38 131 -305 0
-16 131 -305 475 0
16 -131 0
-131 305 0
-38 -131 -475 0
132 300 686 0
132 300 475 0
38 132 300 0
-132 -300 0
-38 -132 -475 -686 0
126 133 -496 0
49 127 133 0
126 127 133 0
49 133 -496 0
-49 -126 -133 0
-127 -133 496 0
-53 134 -135 0
-53 134 143 0
53 -134 0
-134 135 -143 0
61 -96 135 -136 0
-61 -96 135 -1052 0
96 -135 0
61 -135 136 0
-61 -135 1052 0
-63 136 -1051 0
63 136 -137 0
-63 -136 1051 0
63 -136 137 0
88 137 138 142 0
88 137 138 -141 0
-88 -137 0
-137 -138 0
-137 141 -142 0
138 139 -721 1050 0
94 138 139 -721 0
-138 721 0
-138 -139 0
-94 -138 -1050 0
-92 139 140 0
92 -139 0
-139 -140 0
67 87 140 0
-87 140 1049 0
87 140 726 0
-87 -140 -1049 0
-67 87 -140 -726 0
-67 87 141 -726 0
-67 141 -726 896 0
67 -141 0
-141 726 0
-87 -141 -896 0
142 721 1049 0
142 721 896 0
87 142 721 0
-142 -721 0
-87 -142 -896 -1049 0
136 143 -917 0
98 137 143 0
136 137 143 0
98 143 -917 0
-98 -136 -143 0
-137 -143 917 0
-7 144 -145 0
-7 144 152 0
7 -144 0
-144 145 -152 0
10 -47 145 -146 0
-10 -47 145 -693 0
47 -145 0
10 -145 146 0
-10 -145 693 0
-12 146 -692 0
12 146 -147 0
-12 -146 692 0
12 -146 147 0
39 147 148 151 0
39 147 148 -150 0
-39 -147 0
-147 -148 0
-147 150 -151 0
148 -149 300 -475 0
16 148 300 475 0
-148 -300 0
-148 149 -475 0
-16 -148 475 0
-38 149 690 0
16 38 149 0
-38 -149 -690 0
-16 38 -149 0
-43 149 150 0
43 -150 0
-149 -150 0
45 151 -300 0
151 -300 691 0
-151 300 0
-45 -151 -691 0
146 152 -496 0
49 147 152 0
146 147 152 0
49 152 -496 0
-49 -146 -152 0
-147 -152 496 0
-53 153 -154 0
-53 153 161 0
53 -153 0
-153 154 -161 0
61 -96 154 -155 0
-61 -96 154 -1056 0
96 -154 0
61 -154 155 0
-61 -154 1056 0
-63 155 -1055 0
63 155 -156 0
-63 -155 1055 0
63 -155 156 0
88 156 157 160 0
88 156 157 -159 0
-88 -156 0
-156 -157 0
-156 159 -160 0
157 -158 721 -896 0
67 157 721 896 0
-157 -721 0
-157 158 -896 0
-67 -157 896 0
-87 158 1053 0
67 87 158 0
-87 -158 -1053 0
-67 87 -158 0
-92 158 159 0
92 -159 0
-158 -159 0
94 160 -721 0
160 -721 1054 0
-160 721 0
-94 -160 -1054 0
155 161 -917 0
98 156 161 0
155 156 161 0
98 161 -917 0
-98 -155 -161 0
-156 -161 917 0
124 162 -163 -211 0
-134 162 -163 -211 0
-162 211 0
-162 163 0
-124 134 -162 0
163 -164 -178 -202 0
163 164 178 193 0
163 164 178 -202 0
163 -164 -178 193 0
-163 164 -178 0
-163 -164 178 0
-163 -193 202 0
-7 164 -165 0
-7 164 -176 0
-7 164 -175 0
7 -164 0
-164 165 175 176 0
165 168 -169 0
-43 165 166 -169 0
-165 169 0
-165 -166 -168 0
43 -165 -168 0
-38 166 709 0
38 166 167 0
-38 -166 -709 0
38 -166 -167 0
-16 167 -708 0
-167 708 0
16 -167 0
45 168 -300 0
168 -300 710 0
-168 300 0
-45 -168 -710 0
169 -170 174 0
-169 170 0
-169 -174 0
39 170 171 0
-39 -170 0
-170 -171 0
-12 171 -496 0
171 -172 -496 0
-171 496 0
12 -171 172 0
-10 172 173 503 0
-50 172 173 -503 0
-172 -173 0
50 -172 -503 0
10 -172 503 0
-50 51 173 -496 -503 0
50 -173 0
-51 -173 0
-173 496 0
-173 503 0
-166 174 300 -475 0
167 174 300 475 0
-174 -300 0
166 -174 -475 0
-167 -174 475 0
-10 -47 175 -712 0
-175 712 0
10 -175 0
47 -175 0
-12 176 -177 -711 0
-176 711 0
12 -176 0
-176 177 0
172 177 -496 0
-177 496 0
-172 -177 0
-53 178 -179 0
-53 178 -191 0
-53 178 -190 0
53 -178 0
-178 179 190 191 0
179 182 -183 0
-92 179 180 -183 0
-179 183 0
-179 -180 -182 0
92 -179 -182 0
-87 180 1072 0
87 180 181 0
-87 -180 -1072 0
87 -180 -181 0
-67 181 -1071 0
-181 1071 0
67 -181 0
94 182 -721 0
182 -721 1073 0
-182 721 0
-94 -182 -1073 0
183 -184 189 0
-183 184 0
-183 -189 0
88 184 185 0
-88 -184 0
-184 -185 0
-63 185 -917 0
185 -186 -917 0
-185 917 0
63 -185 186 0
-61 186 187 924 0
-100 186 187 -924 0
-186 -187 0
100 -186 -924 0
61 -186 924 0
99 187 -188 0
-99 -187 0
-187 188 0
188 -917 -924 -925 926 0
-188 925 0
-188 -926 0
-188 917 0
-188 924 0
-180 189 721 -896 0
181 189 721 896 0
-189 -721 0
180 -189 -896 0
-181 -189 896 0
-61 -96 190 -1075 0
-190 1075 0
61 -190 0
96 -190 0
-63 191 -192 -1074 0
-191 1074 0
63 -191 0
-191 192 0
186 192 -917 0
-192 917 0
-186 -192 0
-7 193 -194 0
-7 193 -201 0
-7 193 -200 0
7 -193 0
-193 194 200 201 0
194 197 -198 0
-43 194 195 -198 0
-194 198 0
-194 -195 -197 0
43 -194 -197 0
-38 195 700 0
38 195 196 0
-38 -195 -700 0
38 -195 -196 0
-16 196 -699 0
-196 699 0
16 -196 0
45 197 -300 0
197 -300 701 0
-197 300 0
-45 -197 -701 0
-170 198 199 0
170 -198 0
-198 -199 0
-195 199 300 -475 0
196 199 300 475 0
-199 -300 0
195 -199 -475 0
-196 -199 475 0
-10 -47 200 -703 0
-200 703 0
10 -200 0
47 -200 0
-12 -177 201 -702 0
-201 702 0
12 -201 0
177 -201 0
-53 202 -203 0
-53 202 -210 0
-53 202 -209 0
53 -202 0
-202 203 209 210 0
203 206 -207 0
-92 203 204 -207 0
-203 207 0
-203 -204 -206 0
92 -203 -206 0
-87 204 1063 0
87 204 205 0
-87 -204 -1063 0
87 -204 -205 0
-67 205 -1062 0
-205 1062 0
67 -205 0
94 206 -721 0
206 -721 1064 0
-206 721 0
-94 -206 -1064 0
-184 207 208 0
184 -207 0
-207 -208 0
-204 208 721 -896 0
205 208 721 896 0
-208 -721 0
204 -208 -896 0
-205 -208 896 0
-61 -96 209 -1066 0
-209 1066 0
61 -209 0
96 -209 0
-63 -192 210 -1065 0
-210 1065 0
63 -210 0
192 -210 0
-193 211 -212 -274 0
202 211 -212 -274 0
-211 274 0
-211 212 0
193 -202 -211 0
212 213 227 -238 -256 0
212 -213 -227 -238 -256 0
-212 256 0
-212 -213 227 0
-212 238 0
-212 213 -227 0
213 -217 300 0
44 213 -214 -217 0
-213 217 0
-213 214 -300 0
-44 -213 -300 0
214 419 -715 0
214 -215 -419 0
-214 215 -419 0
-214 419 715 0
-21 215 -677 0
17 -21 215 216 0
21 -215 0
-215 -216 677 0
-17 -215 677 0
216 311 714 0
-216 -311 0
-216 -714 0
217 -218 224 0
-217 218 0
-217 -224 0
-8 218 219 -222 0
8 -218 0
-218 -219 0
-218 222 0
-3 219 221 532 0
-3 219 -220 221 0
3 -219 0
-219 -221 0
-219 220 -532 0
-4 220 0
220 -541 547 0
220 541 548 0
4 -220 -541 -547 0
4 -220 541 -548 0
4 221 -541 547 0
4 221 541 548 0
-4 -221 0
-221 541 -548 0
-221 -541 -547 0
39 222 223 0
39 51 222 0
39 222 496 0
-39 -222 0
-51 -222 -223 -496 0
-50 223 -503 0
-223 503 0
50 -223 0
214 224 225 0
214 215 224 0
215 224 -225 300 0
-214 -224 225 0
-215 -224 -225 0
-214 -224 -300 0
225 -226 475 476 0
-225 226 0
-225 -476 0
-225 -475 0
226 477 478 479 0
-226 -477 0
-226 -479 0
-226 -478 0
227 228 -234 -237 0
227 228 -234 721 0
-227 234 0
-227 -228 0
-227 237 -721 0
228 229 233 0
228 231 233 0
228 229 -231 721 0
-228 -229 -231 0
-228 231 -233 0
-228 -233 -721 0
-68 229 -1040 0
-68 82 229 230 0
68 -229 0
-229 -230 1040 0
-82 -229 1040 0
230 732 1077 0
-230 -732 0
-230 -1077 0
231 -232 896 897 0
-231 232 0
-231 -897 0
-231 -896 0
232 898 899 900 0
-232 -898 0
-232 -900 0
-232 -899 0
233 840 -1078 0
-229 233 -840 0
229 -233 -840 0
-233 840 1078 0
56 234 -235 0
59 234 -235 -953 0
-234 235 0
-56 -59 -234 0
-56 -234 953 0
235 -236 -982 -1011 0
-235 982 0
-235 1011 0
-235 236 0
88 188 236 0
88 99 236 0
-88 -236 0
-99 -188 -236 0
93 -233 237 0
-93 -237 0
233 -237 0
238 239 241 244 -250 0
238 -239 -241 244 -250 0
-238 -244 0
-238 239 -241 0
-238 250 0
-238 -239 241 0
-234 239 -240 721 0
93 -234 239 -240 0
-239 240 0
234 -239 0
-93 -239 -721 0
-68 240 -1040 1042 0
-240 1040 0
-240 -1042 0
68 -240 0
-21 -218 241 242 -243 0
-241 243 0
21 -241 0
218 -241 0
-241 -242 0
-44 242 -300 0
-242 300 0
44 -242 0
243 -677 679 0
-243 677 0
-243 -679 0
244 245 -247 0
-244 -245 0
-244 247 0
245 246 -991 997 0
245 246 991 998 0
-245 -246 0
-245 991 -998 0
-245 -991 -997 0
246 982 0
246 -983 -989 0
246 983 -990 0
-246 -982 983 990 0
-246 -982 -983 989 0
-246 247 -249 0
247 248 -249 0
-247 249 0
246 -247 -248 0
248 -991 -997 0
248 991 -998 0
-248 991 998 0
-248 -991 997 0
249 982 0
249 -983 989 0
249 983 990 0
-249 -982 983 -990 0
-249 -982 -983 -989 0
58 250 -251 0
57 250 -251 0
59 250 -251 0
-250 251 0
-57 -58 -59 -250 0
69 76 251 -252 0
-75 76 251 -252 0
-251 252 0
-76 -251 0
-69 75 -251 0
82 -236 252 253 -254 0
236 -252 0
-252 -253 0
-82 -252 0
-252 254 0
-93 253 -721 0
-253 721 0
93 -253 0
254 255 -725 -1011 0
254 255 726 -1011 0
-254 1011 0
-254 -255 0
-254 725 -726 0
255 723 724 0
-255 -723 0
-255 -724 0
256 -257 -265 0
256 257 265 0
-256 257 -265 0
-256 -257 265 0
257 -261 721 0
93 257 258 -261 0
-257 261 0
-257 -258 -721 0
-93 -257 -721 0
258 259 -840 0
-240 258 840 1048 0
-258 840 -1048 0
-258 -259 -840 0
240 -258 840 0
-68 259 -260 0
68 -259 0
-259 260 0
260 -1040 -1042 0
82 260 1040 0
260 -1040 -1046 0
-82 -260 1040 0
-260 -1040 1042 1046 0
-234 261 -262 263 0
-234 258 261 263 0
234 -261 0
-261 -263 0
-258 -261 262 0
262 896 897 0
-262 -896 0
-262 -897 0
259 263 -264 0
232 -258 263 0
232 263 -264 0
-258 259 263 0
258 -263 264 0
-232 -259 -263 0
-231 264 721 0
-264 -721 0
231 -264 0
265 -270 300 0
44 265 266 -270 0
-265 270 0
-265 -266 -300 0
-44 -265 -300 0
266 267 -419 0
-21 266 -269 419 0
-266 -267 -419 0
21 -266 419 0
-266 269 419 0
-21 267 -268 0
21 -267 0
-267 268 0
268 -677 -679 0
17 268 677 0
268 -677 -683 0
-17 -268 677 0
-268 -677 679 683 0
269 -677 679 685 0
-269 677 0
-269 -685 0
-269 -679 0
-218 270 -271 272 0
-218 266 270 272 0
218 -270 0
-270 -272 0
-266 -270 271 0
271 475 476 0
-271 -475 0
-271 -476 0
267 272 -273 0
226 -266 272 0
226 272 -273 0
-266 267 272 0
266 -272 273 0
-226 -267 -272 0
-225 273 300 0
-273 -300 0
225 -273 0
274 -275 -286 0
274 275 286 0
-274 275 -286 0
-274 -275 286 0
-7 171 275 276 0
-7 275 276 285 0
7 -275 0
-275 -276 0
-171 -275 -285 0
276 -278 279 0
12 276 277 279 0
-276 -279 0
-276 -277 278 0
-12 -276 278 0
-10 277 503 -707 0
10 -277 0
-277 707 0
-277 -503 0
12 278 496 0
278 496 706 0
173 278 496 0
-278 -496 0
-12 -173 -278 -706 0
39 279 280 284 0
39 279 280 -283 0
-39 -279 0
-279 -280 0
-279 283 -284 0
280 -282 300 -475 0
280 281 300 475 0
-280 -300 0
-280 282 -475 0
-280 -281 475 0
-16 281 -304 0
-281 304 0
16 -281 0
-38 282 704 0
38 281 282 0
-38 -282 -704 0
38 -281 -282 0
-43 282 283 0
43 -283 0
-282 -283 0
45 284 -300 0
284 -300 705 0
-284 300 0
-45 -284 -705 0
-172 277 285 0
277 285 706 0
-277 -285 0
172 -285 -706 0
-53 185 286 287 0
-53 286 287 295 0
53 -286 0
-286 -287 0
-185 -286 -295 0
287 289 917 0
63 287 288 289 0
-287 -289 0
-287 -288 -917 0
-63 -287 -917 0
-61 288 924 -1070 0
61 -288 0
-288 1070 0
-288 -924 0
88 289 290 294 0
88 289 290 -293 0
-88 -289 0
-289 -290 0
-289 293 -294 0
290 -292 721 -896 0
290 291 721 896 0
-290 -721 0
-290 292 -896 0
-290 -291 896 0
-67 291 -725 0
-291 725 0
67 -291 0
-87 292 1067 0
87 291 292 0
-87 -292 -1067 0
87 -291 -292 0
-92 292 293 0
92 -293 0
-292 -293 0
94 294 -721 0
294 -721 1068 0
-294 721 0
-94 -294 -1068 0
-186 288 295 0
288 295 1069 0
-288 -295 0
186 -295 -1069 0
17 -222 296 297 -298 0
222 -296 0
-296 -297 0
-17 -296 0
-296 298 0
29 33 35 297 0
-29 -297 0
-35 -297 0
-33 -297 0
-8 22 242 298 -299 0
-298 299 0
-242 -298 0
8 -298 0
-22 -298 0
299 -303 -304 0
299 -302 305 0
299 -302 -304 0
299 -303 305 0
-299 304 -305 0
-299 302 303 0
1 2 0
-1 -2 0
1084 0

